100
32
6
28
17
6
5
28
32
18
13
21
12
29
5
14
5
7
5
20
1
1
1
1
20
3
18
1
3
1
2
5
3
16
1
1
1
1
1
17
4
1
1
4
2
20
3
1
5
1
4
2
3
1
1
21
22
1
2
3
3
21
3
7
2
1
1
19
3
3
3
3
1
1
1
1
1
2
2
2
1
3
1
1
3
1
3
1
2
17
2
5
1
1
3
1
1
2
2
1
1
3